162
1000000
438335
659744
804095
947960
576890
340865
207108
195905
360619
235357
365705
729408
390866
290736
637576
345216
634295
362424
314001
368071
304051
460406
422766
932507
54758
4459
67311
888722
244935
48998
505431
316092
388213
657888
663686
36751
149981
48352
386267
811226
395869
376651
109902
652688
90989
342112
521364
494569
35355
425728
635499
127515
757537
359332
807307
56764
71672
52040
685999
122650
673082
120287
28217
943236
175104
230269
690873
191876
504200
16446
75532
963249
951648
67493
324739
607912
75714
338636
734645
675261
111278
226145
536645
548268
972894
24164
165205
557470
924006
962484
232655
698835
268269
75994
585367
148796
335608
52577
129144
243512
133021
392088
181196
397065
448833
81702
562688
602935
20002
325870
59530
392
90251
60486
536875
695949
478636
995541
412357
308345
118679
674130
201527
255686
551870
188774
227025
164877
57620
414633
769731
212531
309127
301541
264017
242465
422718
451732
165255
516042
336314
37516
123023
266934
120611
346439
631929
876977
667792
27106
384910
21350
604039
301165
192693
75142
490980
101981
299079
343815
326918
222292
